c Sudoku solution
p cnf 729 0
134 0
162 0
211 0
256 0
268 0
277 0
285 0
317 0
349 0
391 0
437 0
463 0
488 0
551 0
141 0
157 0
573 0
646 0
658 0
669 0
675 0
692 0
687 0
471 0
831 0
621 0
633 0
614 0
876 0
915 0
125 0
535 0
947 0
567 0
961 0
766 0
781 0
972 0
382 0
864 0
365 0
848 0
178 0
374 0
244 0
353 0
743 0
959 0
542 0
445 0
454 0
779 0
883 0
984 0
998 0
724 0
827 0
797 0
895 0
755 0
852 0
819 0
923 0
936 0
113 0
293 0
338 0
326 0
528 0
516 0
412 0
429 0
496 0
718 0
732 0
222 0
239 0
589 0
594 0
186 0
199 0
